40 100
5 7 27 37 38
6 21 26 34 40
9 18 30 35 38
12 13 17 21 25
1 17 24 32 39
2 23 33 37 39
1 12 14 30 31
13 21 22 23 30
3 15 21 26 34
11 16 19 23 37
10 20 27 28 32
4 7 22 30 39
4 8 23 25 39
7 19 29 34 36
9 16 19 31 33
10 15 24 29 36
4 5 22 29 35
3 24 28 31 40
10 14 15 26 35
11 29 36 37 40
2 4 8 9 27
8 12 17 31 34
6 8 10 13 24
5 16 18 23 28
4 13 26 32 39
2 9 19 25 40
1 11 21 29 33
11 18 24 30 32
14 16 17 20 27
3 7 8 12 28
7 15 18 22 34
5 11 25 28 35
6 15 27 36 38
2 9 14 22 31
3 17 19 32 36
14 16 20 33 35
1 6 10 20 38
1 3 33 37 40
5 6 12 13 25
2 18 20 26 38
